c This Formular is generated by mcnf
c
c    horn? no 
c    forced? no 
c    mixed sat? no 
c    clause length = 3 
c
p cnf 20  91 
 7 -12 10 0
-18 -1 -7 0
9 -15 6 0
-10 1 -2 0
11 1 -7 0
17 -11 6 0
-11 13 -1 0
-15 17 13 0
1 15 -8 0
1 20 -14 0
2 19 10 0
8 -16 18 0
7 2 19 0
7 1 14 0
-10 -9 -1 0
19 -11 -8 0
14 11 -10 0
9 -10 16 0
14 -2 -4 0
-15 -20 -2 0
13 15 -4 0
%
0

74 17 59 85 34 35 20 85 29 11 98 96 50 57 65 86 95 73 84 84
